certificates/rado_a5_c218_N43.drat
-43 0
40 0
-22 0
19 0
25 0
-1 0
-37 0
-7 0
4 0
34 0
10 0
-16 0
-42 0
-28 0
-38 0
8 0
13 0
24 0
39 0
35 0
29 0
9 0
14 0
30 0
15 0
20 0
31 0
36 0
41 0
5 0
-21 0
-26 0
0
